Max time = 2000.0
Tried aggregator 1 time.
MIP Presolve eliminated 1496 rows and 0 columns.
MIP Presolve modified 86 coefficients.
Reduced MIP has 943 rows, 5302 columns, and 28124 nonzeros.
Reduced MIP has 5302 binaries, 0 generals, 0 SOSs, and 0 indicators.
Presolve time = 0.13 sec. (21.04 ticks)
Probing time = 0.12 sec. (3.62 ticks)
Tried aggregator 1 time.
Reduced MIP has 943 rows, 5302 columns, and 28124 nonzeros.
Reduced MIP has 5302 binaries, 0 generals, 0 SOSs, and 0 indicators.
Presolve time = 0.05 sec. (12.89 ticks)
Probing time = 0.12 sec. (3.52 ticks)
Clique table members: 6337.
MIP emphasis: balance optimality and feasibility.
MIP search method: dynamic search.
Parallel mode: deterministic, using up to 4 threads.
Root relaxation solution time = 0.82 sec. (215.41 ticks)

        Nodes                                         Cuts/
   Node  Left     Objective  IInf  Best Integer    Best Bound    ItCnt     Gap

      0     0       14.0000   860                     14.0000        0         
*     0+    0                           28.0000       14.0000            50.00%
      0     2       14.0000   679       28.0000       14.0000     2484   50.00%
Elapsed time = 23.30 sec. (5449.75 ticks, tree = 0.01 MB, solutions = 1)
      1     3       14.0000   599       28.0000       14.0000     6175   50.00%
      2     3       14.0000   570       28.0000       14.0000     5940   50.00%
      7     9       14.0000   668       28.0000       14.0000    14889   50.00%
     13     5       14.0000   540       28.0000       14.0000    12049   50.00%
     19    13       14.0000   567       28.0000       14.0000    23117   50.00%
     27    22       14.0000   617       28.0000       14.0000    29135   50.00%
     33    19       14.0000   577       28.0000       14.0000    28526   50.00%
     38    35       14.0000   391       28.0000       14.0000    42169   50.00%
     52    39       14.5000   450       28.0000       14.0000    47360   50.00%
    113    62       14.0000   536       28.0000       14.0000    69232   50.00%
Elapsed time = 45.16 sec. (9549.10 ticks, tree = 0.11 MB, solutions = 1)
    181   101       16.0000   376       28.0000       14.0000   107702   50.00%
*   211+  112                           16.0000       14.0000            12.50%
*   249+  103                           14.0000       14.0000             0.00%
    260   113       17.0000   521       14.0000       14.0000   125249    0.00%

Root node processing (before b&c):
  Real time             =   23.10 sec. (5416.17 ticks)
Parallel b&c, 4 threads:
  Real time             =   34.01 sec. (6531.32 ticks)
  Sync time (average)   =    5.40 sec.
  Wait time (average)   =    0.00 sec.
                          ------------
Total (root+branch&cut) =   57.11 sec. (11947.49 ticks)
P#16 = 1.0
P#21 = 1.0
P#23 = 1.0
P#28 = 1.0
P#32 = 1.0
P#37 = 1.0
P#43 = 1.0
P#44 = 1.0
P#50 = 1.0
P#55 = 1.0
P#59 = 1.0
P#64 = 1.0
P#66 = 1.0
P#71 = 1.0
P#65 = 1.0
P#22 = 1.0
X#1#59 = 1.0
X#2#66 = 1.0
X#3#65 = 1.0
X#4#55 = 1.0
X#5#64 = 1.0
X#6#44 = 1.0
X#7#50 = 1.0
X#8#71 = 1.0
X#9#21 = 1.0
X#10#23 = 1.0
X#11#32 = 1.0
X#12#28 = 1.0
X#13#37 = 1.0
X#14#43 = 1.0
X#15#22 = 1.0
X#16#16 = 1.0
L#1#1 = 1.0
L#1#3 = 1.0
L#1#5 = 1.0
L#1#7 = 1.0
L#1#10 = 1.0
L#1#12 = 1.0
L#1#14 = 1.0
L#2#1 = 1.0
L#2#3 = 1.0
L#2#5 = 1.0
L#2#7 = 1.0
L#2#9 = 1.0
L#2#11 = 1.0
L#2#13 = 1.0
L#2#14 = 1.0
L#3#1 = 1.0
L#3#3 = 1.0
L#3#5 = 1.0
L#3#7 = 1.0
L#3#9 = 1.0
L#3#11 = 1.0
L#3#13 = 1.0
L#3#15 = 1.0
L#4#1 = 1.0
L#4#3 = 1.0
L#4#5 = 1.0
L#4#8 = 1.0
L#4#10 = 1.0
L#4#12 = 1.0
L#4#14 = 1.0
L#5#1 = 1.0
L#5#3 = 1.0
L#5#5 = 1.0
L#5#7 = 1.0
L#5#9 = 1.0
L#5#11 = 1.0
L#5#14 = 1.0
L#6#1 = 1.0
L#6#4 = 1.0
L#6#6 = 1.0
L#6#8 = 1.0
L#6#10 = 1.0
L#6#12 = 1.0
L#6#14 = 1.0
L#7#1 = 1.0
L#7#3 = 1.0
L#7#6 = 1.0
L#7#8 = 1.0
L#7#10 = 1.0
L#7#12 = 1.0
L#7#14 = 1.0
L#8#1 = 1.0
L#8#3 = 1.0
L#8#5 = 1.0
L#8#7 = 1.0
L#8#9 = 1.0
L#8#10 = 1.0
L#8#12 = 1.0
L#8#14 = 1.0
L#9#2 = 1.0
L#9#4 = 1.0
L#9#6 = 1.0
L#9#8 = 1.0
L#9#10 = 1.0
L#9#12 = 1.0
L#9#15 = 1.0
L#10#2 = 1.0
L#10#4 = 1.0
L#10#6 = 1.0
L#10#8 = 1.0
L#10#10 = 1.0
L#10#12 = 1.0
L#10#13 = 1.0
L#10#15 = 1.0
L#11#2 = 1.0
L#11#4 = 1.0
L#11#6 = 1.0
L#11#7 = 1.0
L#11#9 = 1.0
L#11#11 = 1.0
L#11#13 = 1.0
L#11#15 = 1.0
L#12#2 = 1.0
L#12#4 = 1.0
L#12#6 = 1.0
L#12#8 = 1.0
L#12#9 = 1.0
L#12#11 = 1.0
L#12#13 = 1.0
L#12#15 = 1.0
L#13#2 = 1.0
L#13#4 = 1.0
L#13#5 = 1.0
L#13#7 = 1.0
L#13#9 = 1.0
L#13#11 = 1.0
L#13#13 = 1.0
L#13#15 = 1.0
L#14#2 = 1.0
L#14#3 = 1.0
L#14#5 = 1.0
L#14#7 = 1.0
L#14#9 = 1.0
L#14#11 = 1.0
L#14#13 = 1.0
L#14#15 = 1.0
L#15#2 = 1.0
L#15#4 = 1.0
L#15#6 = 1.0
L#15#8 = 1.0
L#15#10 = 1.0
L#15#12 = 1.0
L#15#14 = 1.0
L#16#2 = 1.0
L#16#4 = 1.0
L#16#6 = 1.0
L#16#8 = 1.0
L#16#11 = 1.0
L#16#13 = 1.0
L#16#15 = 1.0
F#1#16#1 = 1.0
F#1#9#3 = 1.0
F#1#15#5 = 1.0
F#1#4#7 = 1.0
F#1#5#10 = 1.0
F#1#3#12 = 1.0
F#1#14#14 = 1.0
F#2#15#1 = 1.0
F#2#16#3 = 1.0
F#2#6#5 = 1.0
F#2#9#7 = 1.0
F#2#7#9 = 1.0
F#2#1#11 = 1.0
F#2#5#13 = 1.0
F#2#13#14 = 1.0
F#3#14#1 = 1.0
F#3#12#3 = 1.0
F#3#11#5 = 1.0
F#3#7#7 = 1.0
F#3#6#9 = 1.0
F#3#8#11 = 1.0
F#3#4#13 = 1.0
F#3#2#15 = 1.0
F#4#13#1 = 1.0
F#4#15#3 = 1.0
F#4#9#5 = 1.0000000000000007
F#4#8#8 = 1.0
F#4#11#10 = 1.0
F#4#2#12 = 1.0
F#4#12#14 = 1.0
F#5#12#1 = 1.0
F#5#13#3 = 1.0
F#5#10#5 = 1.0
F#5#15#7 = 1.0
F#5#4#9 = 1.0
F#5#7#11 = 1.0
F#5#3#14 = 1.0
F#6#11#1 = 1.0
F#6#4#4 = 1.0
F#6#1#6 = 1.000000000000001
F#6#5#8 = 1.0
F#6#14#10 = 1.000000000000001
F#6#16#12 = 1.0
F#6#10#14 = 1.0
F#7#10#1 = 1.0
F#7#6#3 = 1.0
F#7#4#6 = 1.0000000000000007
F#7#1#8 = 1.000000000000001
F#7#13#10 = 1.000000000000001
F#7#14#12 = 1.000000000000001
F#7#16#14 = 1.0
F#8#9#1 = 1.0
F#8#10#3 = 1.0
F#8#7#5 = 1.0
F#8#6#7 = 1.0
F#8#1#9 = 1.0
F#8#2#10 = 1.0
F#8#5#12 = 1.0
F#8#11#14 = 1.0
F#9#7#2 = 1.0
F#9#5#4 = 1.0
F#9#14#6 = 1.0000000000000007
F#9#3#8 = 1.0
F#9#16#10 = 1.0
F#9#13#12 = 1.0
F#9#6#15 = 1.0
F#10#4#2 = 1.0
F#10#1#4 = 1.0
F#10#3#6 = 1.0
F#10#2#8 = 1.0
F#10#12#10 = 1.0
F#10#11#12 = 1.0
F#10#9#13 = 1.0
F#10#15#15 = 1.0
F#11#5#2 = 1.0
F#11#2#4 = 1.0
F#11#13#6 = 1.0
F#11#16#7 = 1.0
F#11#9#9 = 1.0
F#11#15#11 = 1.0
F#11#7#13 = 1.0
F#11#1#15 = 1.0
F#12#1#2 = 1.0
F#12#8#4 = 1.0
F#12#2#6 = 1.0
F#12#11#8 = 1.0
F#12#16#9 = 1.0
F#12#9#11 = 1.0
F#12#6#13 = 1.0
F#12#7#15 = 1.000000000000001
F#13#3#2 = 1.0
F#13#14#4 = 1.0
F#13#12#5 = 1.0000000000000002
F#13#10#7 = 1.0
F#13#15#9 = 1.0
F#13#6#11 = 1.0
F#13#1#13 = 1.0
F#13#8#15 = 1.0
F#14#2#2 = 1.0
F#14#11#3 = 1.0
F#14#16#5 = 0.9999999999999998
F#14#12#7 = 1.0
F#14#10#9 = 1.0
F#14#4#11 = 1.0
F#14#8#13 = 1.0
F#14#5#15 = 1.0
F#15#6#2 = 1.0
F#15#7#4 = 1.0
F#15#8#6 = 1.0
F#15#14#8 = 1.0
F#15#3#10 = 1.0
F#15#12#12 = 1.0
F#15#9#14 = 1.0
F#16#8#2 = 1.0
F#16#3#4 = 1.0
F#16#5#6 = 1.0
F#16#13#8 = 1.0
F#16#10#11 = 1.0
F#16#15#13 = 1.0
F#16#4#15 = 1.0
